p cnf 77 300
-4 2 0
-4 -3 0
-2 3 4 0
-4 -1 -5 0
4 1 -5 0
-4 1 5 0
4 -1 5 0
-1 5 -6 0
1 -5 -6 0
-1 -5 6 0
1 5 6 0
-8 9 -10 0
8 -9 -10 0
-8 -9 10 0
8 9 10 0
-11 -2 0
-11 -10 0
2 10 11 0
12 7 0
12 11 0
-7 -11 -12 0
-13 10 -14 0
13 -10 -14 0
-13 -10 14 0
13 10 14 0
12 14 -15 0
-12 -14 -15 0
12 -14 15 0
-12 14 15 0
-16 6 0
-16 -15 0
-6 15 16 0
-18 -9 0
-18 17 0
9 -17 18 0
4 18 -19 0
-4 -18 -19 0
4 -18 19 0
-4 18 19 0
-1 -4 -20 0
1 4 -20 0
-1 4 20 0
1 -4 20 0
-4 -20 -21 0
4 20 -21 0
-4 20 21 0
4 -20 21 0
22 -19 0
22 21 0
19 -21 -22 0
23 22 0
23 -18 0
-22 18 -23 0
-25 11 0
-25 -24 0
-11 24 25 0
3 -25 -26 0
-3 25 -26 0
3 25 26 0
-3 -25 26 0
27 -24 0
27 -1 0
24 1 -27 0
-28 -27 0
-28 -9 0
27 9 28 0
26 28 -29 0
-26 -28 -29 0
26 -28 29 0
-26 28 29 0
30 -22 0
30 29 0
22 -29 -30 0
-31 -23 0
-31 30 0
23 -30 31 0
16 -31 -32 0
-16 31 -32 0
16 31 32 0
-16 -31 32 0
-33 -25 0
-33 -22 0
25 22 33 0
-4 33 -34 0
4 -33 -34 0
-4 -33 34 0
4 33 34 0
35 24 0
35 -21 0
-24 21 -35 0
34 35 -36 0
-34 -35 -36 0
34 -35 36 0
-34 35 36 0
-24 -13 -37 0
24 13 -37 0
-24 13 37 0
24 -13 37 0
-37 -33 -38 0
37 33 -38 0
-37 33 38 0
37 -33 38 0
39 -24 0
39 -33 0
24 33 -39 0
-40 38 0
-40 39 0
-38 -39 40 0
-41 -15 0
-41 9 0
15 -9 41 0
-42 37 0
-42 -41 0
-37 41 42 0
-43 3 0
-43 -19 0
-3 19 43 0
-12 -43 -44 0
12 43 -44 0
-12 43 44 0
12 -43 44 0
45 -42 0
45 -44 0
42 44 -45 0
46 -40 0
46 45 0
40 -45 -46 0
47 36 0
47 -46 0
-36 46 -47 0
-48 32 0
-48 47 0
-32 -47 48 0
42 -3 -49 0
-42 3 -49 0
42 3 49 0
-42 -3 49 0
50 1 0
50 49 0
-1 -49 -50 0
51 27 0
51 -21 0
-27 21 -51 0
41 -27 -52 0
-41 27 -52 0
41 27 52 0
-41 -27 52 0
-51 -52 -53 0
51 52 -53 0
-51 52 53 0
51 -52 53 0
-54 21 0
-54 42 0
-21 -42 54 0
-55 -54 0
-55 -19 0
54 19 55 0
-56 -49 0
-56 2 0
49 -2 56 0
-57 19 0
-57 56 0
-19 -56 57 0
-58 -55 0
-58 -57 0
55 57 58 0
-59 -53 0
-59 58 0
53 -58 59 0
-50 -59 -60 0
50 59 -60 0
-50 59 60 0
50 -59 60 0
-62 61 0
-62 -11 0
-61 11 62 0
63 26 0
63 -8 0
-26 8 -63 0
-64 17 0
-64 63 0
-17 -63 64 0
-65 62 0
-65 64 0
-62 -64 65 0
-2 -54 -66 0
2 54 -66 0
-2 54 66 0
2 -54 66 0
-9 17 -67 0
9 -17 -67 0
-9 -17 67 0
9 17 67 0
-68 67 0
-68 -9 0
-67 9 68 0
66 -68 -69 0
-66 68 -69 0
66 68 69 0
-66 -68 69 0
65 69 -70 0
-65 -69 -70 0
65 -69 70 0
-65 69 70 0
60 -70 -71 0
-60 70 -71 0
60 70 71 0
-60 -70 71 0
-44 33 -72 0
44 -33 -72 0
-44 -33 72 0
44 33 72 0
-20 5 -73 0
20 -5 -73 0
-20 -5 73 0
20 5 73 0
-74 73 0
-74 -56 0
-73 56 74 0
75 72 0
75 -74 0
-72 74 -75 0
71 -75 -76 0
-71 75 -76 0
71 75 76 0
-71 -75 76 0
48 76 -77 0
-48 -76 -77 0
48 -76 77 0
-48 76 77 0
-30 -58 26 -7 4 0
50 -61 -65 -49 0
-77 6 -33 -42 -67 3 0
-66 40 -35 0
-30 -19 31 0
52 26 -6 -2 0
12 -52 0
75 26 -53 55 65 0
17 19 21 52 0
-19 44 0
12 44 58 -2 0
66 12 -9 -69 0
-29 73 -62 77 76 0
2 -71 0
-59 -41 40 -63 0
-52 -70 58 0
-62 14 9 5 25 66 0
-67 -51 0
58 5 -13 -21 0
-31 1 50 -21 28 0
58 21 -32 0
72 -71 0
-9 -17 0
5 45 62 56 -23 0
-12 40 50 41 -7 0
-50 -44 26 0
-21 -32 0
-75 29 44 0
-59 6 18 -26 72 0
24 -62 0
-67 -10 -71 0
-74 26 -49 0
71 56 0
-71 -56 21 -55 -60 37 0
49 65 0
-43 -33 46 0
51 56 -19 58 -9 -65 0
22 37 0
-32 -15 -42 0
57 -37 -24 -25 -53 -9 0
-70 -74 24 -30 -31 -26 0
-4 -18 8 -65 0
63 4 3 -77 -8 0
-63 64 0
-16 6 0
-13 -42 -44 55 3 0
15 -26 38 10 -62 -4 0
-19 73 0
33 53 43 -31 48 0
-52 -63 33 19 -1 61 0
58 49 -27 -16 0
54 -71 -3 39 0
35 -26 -32 -9 -27 0
-64 -32 0
1 -55 13 -36 -34 0
65 23 0
15 -37 -43 -66 -25 -28 0
68 -7 0
-59 -60 73 -15 -2 -18 0
37 -35 57 -19 0
-71 41 40 -19 56 0
59 75 0
38 -55 0
70 52 1 -55 -30 44 0
-53 -61 45 -69 -36 6 0
-58 39 0
54 -48 0
-26 -61 58 24 76 8 0
-67 -16 0
77 0
